words_train/words_214_SAT.qaiger
aag 122 24 0 1 98
2
38
24
32
8
26
30
4
28
14
34
20
6
42
46
36
10
44
22
48
12
18
40
16
244
50 21 19
52 50 23
54 52 25
56 54 27
58 56 29
60 58 31
62 59 30
64 63 61
66 64 48
68 57 28
70 69 59
72 70 48
74 55 26
76 75 57
78 76 46
80 53 24
82 81 55
84 82 44
86 51 22
88 87 53
90 88 42
92 89 43
94 93 91
96 20 18
98 97 51
100 98 40
102 38 18
104 99 41
106 105 102
108 107 101
110 109 94
112 111 91
114 83 45
116 115 85
118 116 113
120 119 85
122 77 47
124 123 79
126 124 121
128 127 79
130 71 49
132 131 73
134 132 129
136 135 73
138 65 49
140 139 67
142 140 137
144 143 67
146 48 33
148 49 32
150 149 147
152 151 16
154 150 17
156 155 153
158 157 60
160 156 61
162 161 159
164 162 144
166 117 112
168 167 119
170 169 8
172 171 103
174 133 128
176 175 135
178 176 13
180 179 172
182 180 165
184 163 145
186 185 182
188 177 12
190 125 120
192 191 127
194 193 10
196 108 95
198 197 111
200 198 7
202 105 101
204 202 4
206 203 5
208 207 205
210 39 19
212 211 209
214 212 201
216 214 195
218 168 9
220 192 11
222 199 6
224 223 221
226 224 219
228 226 216
230 228 189
232 141 136
234 233 143
236 234 15
238 235 14
240 239 237
242 240 230
244 242 186
i0 2 y[0]
i1 2 z[2]
i2 1 x[3]
i3 1 x[7]
i4 2 y[3]
i5 1 x[4]
i6 1 x[6]
i7 2 y[1]
i8 1 x[5]
i9 2 y[6]
i10 2 z[0]
i11 1 x[1]
i12 2 y[2]
i13 2 z[4]
i14 2 z[6]
i15 2 z[1]
i16 2 y[4]
i17 2 z[5]
i18 1 x[2]
i19 2 z[7]
i20 2 y[5]
i21 1 x[0]
i22 2 z[3]
i23 2 y[7]
o0 bool[0]
c
simplified
  ==
    or
      2 y
      1
    add
      unary minus
        1 x
      >> 2
        2 z
