words_train/words_214_SAT.qaiger.qdimacs
p cnf 122 295
a 9 10 11 12 13 14 15 16 0
e 1 2 3 4 5 6 7 8 17 18 19 20 21 22 23 24 25 26 27 28 29 30 31 32 33 34 35 36 37 38 39 40 41 42 43 44 45 46 47 48 49 50 51 52 53 54 55 56 57 58 59 60 61 62 63 64 65 66 67 68 69 70 71 72 73 74 75 76 77 78 79 80 81 82 83 84 85 86 87 88 89 90 91 92 93 94 95 96 97 98 99 100 101 102 103 104 105 106 107 108 109 110 111 112 113 114 115 116 117 118 119 120 121 122 0
10 9 25 0
-10 -25 0
-9 -25 0
-25 11 26 0
25 -26 0
-11 -26 0
-26 12 27 0
26 -27 0
-12 -27 0
-27 13 28 0
27 -28 0
-13 -28 0
-28 14 29 0
28 -29 0
-14 -29 0
-29 15 30 0
29 -30 0
-15 -30 0
29 -15 31 0
-29 -31 0
15 -31 0
31 30 32 0
-31 -32 0
-30 -32 0
-32 -24 33 0
32 -33 0
24 -33 0
28 -14 34 0
-28 -34 0
14 -34 0
34 29 35 0
-34 -35 0
-29 -35 0
-35 -24 36 0
35 -36 0
24 -36 0
27 -13 37 0
-27 -37 0
13 -37 0
37 28 38 0
-37 -38 0
-28 -38 0
-38 -23 39 0
38 -39 0
23 -39 0
26 -12 40 0
-26 -40 0
12 -40 0
40 27 41 0
-40 -41 0
-27 -41 0
-41 -22 42 0
41 -42 0
22 -42 0
25 -11 43 0
-25 -43 0
11 -43 0
43 26 44 0
-43 -44 0
-26 -44 0
-44 -21 45 0
44 -45 0
21 -45 0
44 21 46 0
-44 -46 0
-21 -46 0
46 45 47 0
-46 -47 0
-45 -47 0
-10 -9 48 0
10 -48 0
9 -48 0
48 25 49 0
-48 -49 0
-25 -49 0
-49 -20 50 0
49 -50 0
20 -50 0
-19 -9 51 0
19 -51 0
9 -51 0
49 20 52 0
-49 -52 0
-20 -52 0
52 -51 53 0
-52 -53 0
51 -53 0
53 50 54 0
-53 -54 0
-50 -54 0
54 -47 55 0
-54 -55 0
47 -55 0
55 45 56 0
-55 -56 0
-45 -56 0
41 22 57 0
-41 -57 0
-22 -57 0
57 42 58 0
-57 -58 0
-42 -58 0
-58 56 59 0
58 -59 0
-56 -59 0
59 42 60 0
-59 -60 0
-42 -60 0
38 23 61 0
-38 -61 0
-23 -61 0
61 39 62 0
-61 -62 0
-39 -62 0
-62 60 63 0
62 -63 0
-60 -63 0
63 39 64 0
-63 -64 0
-39 -64 0
35 24 65 0
-35 -65 0
-24 -65 0
65 36 66 0
-65 -66 0
-36 -66 0
-66 64 67 0
66 -67 0
-64 -67 0
67 36 68 0
-67 -68 0
-36 -68 0
32 24 69 0
-32 -69 0
-24 -69 0
69 33 70 0
-69 -70 0
-33 -70 0
-70 68 71 0
70 -71 0
-68 -71 0
71 33 72 0
-71 -72 0
-33 -72 0
-24 16 73 0
24 -73 0
-16 -73 0
24 -16 74 0
-24 -74 0
16 -74 0
74 73 75 0
-74 -75 0
-73 -75 0
75 -8 76 0
-75 -76 0
8 -76 0
-75 8 77 0
75 -77 0
-8 -77 0
77 76 78 0
-77 -78 0
-76 -78 0
78 -30 79 0
-78 -79 0
30 -79 0
-78 30 80 0
78 -80 0
-30 -80 0
80 79 81 0
-80 -81 0
-79 -81 0
-81 -72 82 0
81 -82 0
72 -82 0
58 -56 83 0
-58 -83 0
56 -83 0
83 59 84 0
-83 -84 0
-59 -84 0
84 -4 85 0
-84 -85 0
4 -85 0
85 51 86 0
-85 -86 0
-51 -86 0
66 -64 87 0
-66 -87 0
64 -87 0
87 67 88 0
-87 -88 0
-67 -88 0
-88 6 89 0
88 -89 0
-6 -89 0
89 -86 90 0
-89 -90 0
86 -90 0
-90 82 91 0
90 -91 0
-82 -91 0
81 72 92 0
-81 -92 0
-72 -92 0
92 -91 93 0
-92 -93 0
91 -93 0
88 -6 94 0
-88 -94 0
6 -94 0
62 -60 95 0
-62 -95 0
60 -95 0
95 63 96 0
-95 -96 0
-63 -96 0
96 -5 97 0
-96 -97 0
5 -97 0
-54 47 98 0
54 -98 0
-47 -98 0
98 55 99 0
-98 -99 0
-55 -99 0
-99 3 100 0
99 -100 0
-3 -100 0
52 50 101 0
-52 -101 0
-50 -101 0
-101 -2 102 0
101 -102 0
2 -102 0
101 2 103 0
-101 -103 0
-2 -103 0
103 102 104 0
-103 -104 0
-102 -104 0
19 9 105 0
-19 -105 0
-9 -105 0
105 104 106 0
-105 -106 0
-104 -106 0
-106 100 107 0
106 -107 0
-100 -107 0
-107 97 108 0
107 -108 0
-97 -108 0
-84 4 109 0
84 -109 0
-4 -109 0
-96 5 110 0
96 -110 0
-5 -110 0
99 -3 111 0
-99 -111 0
3 -111 0
111 110 112 0
-111 -112 0
-110 -112 0
-112 109 113 0
112 -113 0
-109 -113 0
-113 -108 114 0
113 -114 0
108 -114 0
-114 94 115 0
114 -115 0
-94 -115 0
70 -68 116 0
-70 -116 0
68 -116 0
116 71 117 0
-116 -117 0
-71 -117 0
-117 7 118 0
117 -118 0
-7 -118 0
117 -7 119 0
-117 -119 0
7 -119 0
119 118 120 0
-119 -120 0
-118 -120 0
-120 -115 121 0
120 -121 0
115 -121 0
-121 -93 122 0
121 -122 0
93 -122 0
122 0
